Function: get_partitions took 2.002716064453125e-05 seconds
Function: map_flows_partitions took 4.291534423828125e-06 seconds
Building model with:
3 devices, 3 partitions and 1 flows
Using license file /home/anup/gurobi.lic
Academic license - for non-commercial use only
Function: MIP.add_frac_mem_var took 0.00024771690368652344 seconds
Function: MIP.add_coverage_constraints took 0.0001919269561767578 seconds
Function: MIP.add_accuracy_constraints took 0.0002090930938720703 seconds
Function: MIP.add_capacity_constraints took 0.0003497600555419922 seconds
Changed value of parameter TimeLimit to 120.0
   Prev: inf  Min: 0.0  Max: inf  Default: inf
--------------------------------------------------
Starting model update
Model update took: 6.0558319091796875e-05 s
--------------------------------------------------
Starting model optimize
Gurobi Optimizer version 9.0.0 build v9.0.0rc2 (linux64)
Optimize a model with 20 rows, 30 columns and 59 nonzeros
Model fingerprint: 0x7d1fe9c1
Model has 4 general constraints
Variable types: 21 continuous, 9 integer (9 binary)
Coefficient statistics:
  Matrix range     [8e-02, 1e+04]
  Objective range  [1e+00, 1e+00]
  Bounds range     [1e+00, 3e+04]
  RHS range        [1e+00, 1e+00]

---------------------------------------------------------------------------
Multi-objectives: starting optimization with 8 objectives ... 
---------------------------------------------------------------------------

Multi-objectives: applying initial presolve ...
---------------------------------------------------------------------------

Presolve removed 7 rows and 6 columns
Presolve time: 0.00s
Presolved: 13 rows and 24 columns
---------------------------------------------------------------------------

Multi-objectives: optimize objective 1 (tot_rows_CPU) ...
---------------------------------------------------------------------------

Presolve removed 7 rows and 11 columns
Presolve time: 0.00s
Presolved: 6 rows, 13 columns, 24 nonzeros
Presolved model has 2 SOS constraint(s)
Variable types: 4 continuous, 9 integer (9 binary)
Found heuristic solution: objective 3.0000000

Explored 0 nodes (0 simplex iterations) in 0.00 seconds
Thread count was 8 (of 8 available processors)

Solution count 1: 3 

Optimal solution found (tolerance 1.00e-04)
Best objective 3.000000000000e+00, best bound 3.000000000000e+00, gap 0.0000%
---------------------------------------------------------------------------

Multi-objectives: optimize objective 2 (CPU_rows_load) ...
---------------------------------------------------------------------------


Loaded user MIP start with objective 3

Presolve removed 13 rows and 22 columns
Presolve time: 0.00s
Presolved: 1 rows, 2 columns, 2 nonzeros
Presolved model has 1 SOS constraint(s)
Variable types: 0 continuous, 2 integer (1 binary)

Explored 0 nodes (0 simplex iterations) in 0.00 seconds
Thread count was 8 (of 8 available processors)

Solution count 1: 3 

Optimal solution found (tolerance 1.00e-04)
Best objective 3.000000000000e+00, best bound 3.000000000000e+00, gap 0.0000%
---------------------------------------------------------------------------

Multi-objectives: optimize objective 3 (tot_rows_P4) ...
---------------------------------------------------------------------------


Loaded user MIP start with objective 7

Presolve removed 14 rows and 22 columns
Presolve time: 0.00s
Presolved: 1 rows, 2 columns, 2 nonzeros
Presolved model has 1 SOS constraint(s)
Variable types: 0 continuous, 2 integer (1 binary)

Explored 0 nodes (0 simplex iterations) in 0.00 seconds
Thread count was 8 (of 8 available processors)

Solution count 1: 7 

Optimal solution found (tolerance 1.00e-04)
Best objective 7.000000000000e+00, best bound 7.000000000000e+00, gap 0.0000%
---------------------------------------------------------------------------

Multi-objectives: optimize objective 4 (P4_rows_load) ...
---------------------------------------------------------------------------


Loaded user MIP start with objective 7

Presolve removed 15 rows and 22 columns
Presolve time: 0.00s
Presolved: 1 rows, 2 columns, 2 nonzeros
Presolved model has 1 SOS constraint(s)
Variable types: 0 continuous, 2 integer (1 binary)

Explored 0 nodes (0 simplex iterations) in 0.00 seconds
Thread count was 8 (of 8 available processors)

Solution count 1: 7 

Optimal solution found (tolerance 1.00e-04)
Best objective 7.000000000000e+00, best bound 7.000000000000e+00, gap 0.0000%
---------------------------------------------------------------------------

Multi-objectives: optimize objective 5 (tot_mem_CPU) ...
---------------------------------------------------------------------------


Loaded user MIP start with objective 10193.6

Presolve removed 16 rows and 22 columns
Presolve time: 0.00s
Presolved: 1 rows, 2 columns, 2 nonzeros
Presolved model has 1 SOS constraint(s)
Variable types: 0 continuous, 2 integer (1 binary)

Explored 0 nodes (0 simplex iterations) in 0.00 seconds
Thread count was 8 (of 8 available processors)

Solution count 1: 10193.6 

Optimal solution found (tolerance 1.00e-04)
Best objective 1.019356640625e+04, best bound 1.019356640625e+04, gap 0.0000%
---------------------------------------------------------------------------

Multi-objectives: optimize objective 6 (CPU_load_mem) ...
---------------------------------------------------------------------------


Loaded user MIP start with objective 10193.6

Presolve removed 17 rows and 22 columns
Presolve time: 0.00s
Presolved: 1 rows, 2 columns, 2 nonzeros
Presolved model has 1 SOS constraint(s)
Variable types: 0 continuous, 2 integer (1 binary)

Explored 0 nodes (0 simplex iterations) in 0.01 seconds
Thread count was 8 (of 8 available processors)

Solution count 1: 10193.6 

Optimal solution found (tolerance 1.00e-04)
Best objective 1.019356640625e+04, best bound 1.019356640625e+04, gap 0.0000%
---------------------------------------------------------------------------

Multi-objectives: optimize objective 7 (tot_mem_P4) ...
---------------------------------------------------------------------------


Loaded user MIP start with objective 1.09766

Presolve removed 18 rows and 22 columns
Presolve time: 0.00s
Presolved: 1 rows, 2 columns, 2 nonzeros
Presolved model has 1 SOS constraint(s)
Variable types: 0 continuous, 2 integer (1 binary)

Explored 0 nodes (0 simplex iterations) in 0.01 seconds
Thread count was 8 (of 8 available processors)

Solution count 1: 1.09766 

Optimal solution found (tolerance 1.00e-04)
Best objective 1.097656250000e+00, best bound 1.097656250000e+00, gap 0.0000%
---------------------------------------------------------------------------

Multi-objectives: optimize objective 8 (P4_load_mem) ...
---------------------------------------------------------------------------


Loaded user MIP start with objective 1.09766

Presolve removed 19 rows and 22 columns
Presolve time: 0.00s
Presolved: 1 rows, 2 columns, 2 nonzeros
Presolved model has 1 SOS constraint(s)
Variable types: 0 continuous, 2 integer (1 binary)

Explored 0 nodes (0 simplex iterations) in 0.01 seconds
Thread count was 8 (of 8 available processors)

Solution count 1: 1.09766 

Optimal solution found (tolerance 1.00e-04)
Best objective 1.097656250000e+00, best bound 1.097656250000e+00, gap 0.0000%

---------------------------------------------------------------------------
Multi-objectives: solved in 0.01 seconds, solution count 1

Model optimize took: 0.008238792419433594 seconds
--------------------------------------------------

Solution quality statistics for model UnivmonGreedyRows :
  Maximum violation:
    Bound       : 0.00000000e+00
    Constraint  : 7.27595761e-12 (mem_tot_CPU_1)
    Integrality : 0.00000000e+00

Sketch (0) (cm: eps0: 0.03125, del0: 0.05, min_mem: 0.33984375)
Par: 1, Rows: 3
(-0.000,0)    (-0.000,2)    (1.000,1)    
Total frac: 1.000

Sketch (1) (cm: eps0: 3.125e-06, del0: 0.05, min_mem: 3397.85546875)
Par: 1, Rows: 3
(1.000,0)    (-0.000,2)    (0.000,1)    
Total frac: 1.000

Sketch (2) (cm: eps0: 0.625, del0: 0.025, min_mem: 0.01953125)
Par: 1, Rows: 4
(1.000,1)    (-0.000,0)    (-0.000,2)    
Total frac: 1.000

Device (0) CPU_1:
Rows total: 3.0
Mem total: 10193.566406250007

Device (1) P4_1:
Rows total: 7.0
Mem total: 1.09765625

Device (2) CPU_2:
Rows total: 0.0
Mem total: 0.0
--------------------------------------------------
Changed value of parameter NonConvex to 2
   Prev: -1  Min: -1  Max: 2  Default: -1
Changed value of parameter NonConvex to 2
   Prev: -1  Min: -1  Max: 2  Default: -1

Throughput: 74.6787297330208 Mpps, ns per packet: 13.39069375677702
Resources: 113.01719967524214
Used Cores: 11.000000000000004, Total CPUS: 2, Switch Memory: 1.09765625

Sketch (0) (cm: eps0: 0.03125, del0: 0.05, min_mem: 0.33984375)
Par: 1, Rows: 3
(-0.000,0)    (-0.000,2)    (1.000,1)    
Total frac: 1.000

Sketch (1) (cm: eps0: 3.125e-06, del0: 0.05, min_mem: 3397.85546875)
Par: 1, Rows: 3
(1.000,0)    (-0.000,2)    (0.000,1)    
Total frac: 1.000

Sketch (2) (cm: eps0: 0.625, del0: 0.025, min_mem: 0.01953125)
Par: 1, Rows: 4
(1.000,1)    (-0.000,0)    (-0.000,2)    
Total frac: 1.000

Device (0) CPU_1:
cores_sketch: 3.0000000000000018, cores_dpdk: 4.0000000000000036
Rows total: 3.0
Mem total: 10193.566406250007
Throughput: 74.6787297330208

Device (1) P4_1:
Rows total: 7.0
Mem total: 1.09765625
Throughput: 148.0

Device (2) CPU_2:
cores_sketch: 0.0, cores_dpdk: 3.9999999999999973
Rows total: 0
Mem total: 0.0
Throughput: 74.6787297330208
--------------------------------------------------
Function: MIP.solve took 0.0271146297454834 seconds
Function: solve took 0.027405738830566406 seconds
